
c turning on binary mode checking

c parsing input formula with 5204 variables and 24514 clauses

c finished parsing, read 17662 bytes from proof file

c detected empty clause; start verification via backward checking

c 988 of 24514 clauses in core                            

c 105 of 4295 lemmas in core using 12127 resolution steps

c 0 RAT lemmas in core; 5 redundant literals in core lemmas

s VERIFIED

c verification time: 0.058 seconds
